
  22    4
  10   10   10   10

   0   0   0   0   0   5 2 4 5 6 9 
   9  10  10  10  10   2 7 3 
  10  10  10  10  10   3 12 11 10 
   2  10  10  10  10   3 12 11 10 
   4  10  10  10  10   3 12 11 10 
   8  10  10  10  10   3 13 12 10 
   5  10  10  10  10   1 8 
   8  10  10  10  10   4 16 15 13 12 
   2  10  10  10  10   2 12 11 
   5  10  10  10  10   3 16 15 14 
   1  10  10  10  10   2 15 13 
   2  10  10  10  10   2 17 14 
   1  10  10  10  10   1 14 
   9  10  10  10  10   3 21 20 18 
   5  10  10  10  10   3 21 20 17 
  10  10  10  10  10   2 20 17 
   1  10  10  10  10   1 19 
   8  10  10  10  10   1 19 
   6  10  10  10  10   1 22
   5  10  10  10  10   1 22
   6  10  10  10  10   1 22
   0   0   0   0   0   0 
